(set-logic QF_BV)
(declare-fun _substvar_185_ () (_ BitVec 15))
(declare-fun _substvar_329_ () Bool)
(declare-fun _substvar_143_ () (_ BitVec 1))
(declare-fun _substvar_331_ () Bool)
(declare-fun _substvar_332_ () Bool)
(declare-fun _substvar_162_ () (_ BitVec 1))
(declare-fun _substvar_180_ () (_ BitVec 15))
(declare-fun _substvar_339_ () Bool)
(declare-fun _substvar_290_ () Bool)
(declare-fun _substvar_340_ () Bool)
(declare-fun _substvar_344_ () Bool)
(declare-fun _substvar_369_ () Bool)
(declare-fun _substvar_186_ () (_ BitVec 15))
(declare-fun _substvar_355_ () Bool)
(declare-fun _substvar_166_ () (_ BitVec 15))
(declare-fun _substvar_343_ () Bool)
(declare-fun _substvar_171_ () (_ BitVec 15))
(declare-fun _substvar_129_ () (_ BitVec 15))
(assert (and _substvar_331_ true true true true true true true true true true true true true true true true true true true true true true true true true true true true true true true true true true true true true true true true true true true true true true true true true true true true true true true true true true true true true true true true true true true true true true true true true true true _substvar_344_ true true true true true true true true true true true _substvar_355_ true (ite _substvar_329_ (= _substvar_185_ (_ bv0 15)) (= _substvar_185_ (concat (_ bv0 14) _substvar_162_))) (ite _substvar_332_ (= _substvar_166_ (_ bv0 15)) (= _substvar_166_ (concat ((_ extract 13 0) _substvar_185_) (bvxor ((_ extract 14 14) _substvar_185_) ((_ extract 13 13) _substvar_185_))))) (ite _substvar_340_ (= _substvar_171_ (_ bv0 15)) (= _substvar_171_ (concat ((_ extract 13 0) _substvar_166_) _substvar_143_))) (ite _substvar_343_ (= _substvar_180_ (_ bv0 15)) (= _substvar_180_ (concat ((_ extract 13 0) _substvar_171_) (_ bv0 1)))) (ite _substvar_369_ (= _substvar_186_ (_ bv0 15)) (= _substvar_186_ (concat (_ bv0 14) (bvxor (_ bv0 1) ((_ extract 13 13) _substvar_180_))))) (ite _substvar_290_ (= _substvar_129_ (_ bv0 15)) (= _substvar_129_ (concat ((_ extract 13 0) _substvar_186_) (_ bv0 1)))) true true true true true true true true true true true true true true true true true true true true true true true true true true true true true true true true true true true true true true true true true true true true true true true true true true true true true true true true true true true true true true true true true true true _substvar_339_ true true true true true true true true true true true true true true true true true true true true true true true true true true true true true true true (= (= _substvar_129_ (_ bv0 15)) false)))
(check-sat)
(exit)
